%%% static parameters %%%
timespan = 1;
Fact = [2];
Distr1 = [5];
Distr2 = [10];
Clients_N = [100];
Demand_W = [15];
Lt0 = [4];
Lt1 = [4];
SS_ = [0.85];
DS_D = [8];
K = [200];
MA = [500];
%%% dynamic parameters %%%
lost_ratio_sales_ret_th = 0.8957216735302832;
lost_ratio_sales_ret_w = 26;
lost_ratio_sales_dis_th = 0.09514627526319441;
lost_ratio_sales_dis_w = 94;
lost_ratio_sales_fac_th = 0.34127091033656554;
lost_ratio_sales_fac_w = 76;
stock_customer_MA_mean_relative_th = 0.1900489066017358;
stock_customer_MA_mean_relative_w = 26;
stock_distributor_MA_mean_relative_th = 0.7719505904586988;
stock_distributor_MA_mean_relative_w = 95;
stock_retailer_MA_mean_relative_th = 0.7466913857580025;
stock_retailer_MA_mean_relative_w = 5;
stock_factory_MA_mean_relative_th = 0.5593830028968624;
stock_factory_MA_mean_relative_w = 40;
